80 92 66 75 10 13 16 
81 15 79 45 71 
29 26 31 72 36 40 
96 82 11 9 57 24 
98 86 23 48 49 19 74 59 
42 39 54 90 65 25 22 
52 69 68 3 2 4 7 60 
83 97 99 73 
56 64 18 21 84 63 33 
61 35 44 38 1 43 
91 62 95 67 32 28 27 
41 37 34 30 51 
50 89 76 20 100 
93 6 5 8 55 12 
85 53 88 78 46 70 
94 47 17 14 58 77 
87 

